(declare-fun a_ack!140 () (_ BitVec 32))
(declare-fun b_ack!138 () (_ BitVec 32))
(declare-fun c_ack!139 () (_ BitVec 64))
(assert (not (bvslt a_ack!140 #x00000000)))
(assert (not (bvslt b_ack!138 #x00000000)))
(assert (= #x00000000 a_ack!140))
(assert (not (bvslt b_ack!138 #x00000000)))
(assert (not (fp.eq ((_ to_fp 11 53) c_ack!139) ((_ to_fp 11 53) #x0000000000000000))))
(assert (not (= #x00000000 b_ack!138)))

(check-sat)
(exit)
